(declare-fun e () String)
(declare-fun c () String)
(declare-fun g () String)
(declare-fun b () String)
(declare-fun d () String)
(declare-fun f () String)
(declare-fun h () String)
(assert (= "fa" (str.++ c e c)))
(assert (= (str.++ e d h "h" d) (str.++ f "a" b "a")))
(assert (= "egg" (str.++ g b)))

(check-sat)
